17 81 
5 9 
97 35 
54 43 
74 93 
92 75 
32 40 
35 69 
43 42 
43 54 
4 21 
21 39 
81 1 
45 52 
48 8 
56 17 
89 13 
26 38 
49 80 
81 75 
26 74 
50 10 
14 37 
79 9 
80 74 
15 84 
95 89 
75 29 
42 72 
81 90 
80 37 
8 70 
50 34 
8 51 
67 42 
26 45 
68 29 
55 34 
66 87 
95 98 
61 10 
34 9 
51 61 
90 94 
34 23 
36 14 
12 44 
36 14 
31 45 
66 50 
